(set-logic  QF_LRA)
(declare-const fee Real)
(declare-const max Real)
(declare-const w Real)
(assert (= fee (ite (<= w 1) 4.47 (ite (<= w 2) 5.22 (ite (<= w 3) 5.97 (ite (<= w 4) 6.72 (ite (<= w 5) 7.47 (ite (<= w 6) 8.22 (ite (<= w 7) 8.97 (ite (<= w 8) 9.72 (ite (<= w 9) 10.47 (ite (<= w 10) 11.22 (ite (<= w 11) 11.97 (ite (<= w 12) 12.72 (ite (<= w 13) 13.47 (ite (<= w 14) 14.22 (ite (<= w 15) 14.97 (ite (<= w 16) 15.72 (ite (<= w 17) 16.47 (ite (<= w 18) 17.22 (ite (<= w 19) 17.97 (ite (<= w 20) 18.72 (ite (<= w 21) 19.47 (ite (<= w 22) 20.22 (ite (<= w 23) 20.97 (ite (<= w 24) 21.72 (ite (<= w 25) 22.47 (ite (<= w 26) 23.22 (ite (<= w 27) 23.97 (ite (<= w 28) 24.72 (ite (<= w 29) 25.47 (ite (<= w 30) 26.22 (ite (<= w 31) 26.97 (ite (<= w 32) 27.72 (ite (<= w 33) 28.47 (ite (<= w 34) 29.22 (ite (<= w 35) 29.97 (ite (<= w 36) 30.72 (ite (<= w 37) 31.47 (ite (<= w 38) 32.22 (ite (<= w 39) 32.97 (ite (<= w 40) 33.72 (ite (<= w 41) 34.47 (ite (<= w 42) 35.22 (ite (<= w 43) 35.97 (ite (<= w 44) 36.72 (ite (<= w 45) 37.47 (ite (<= w 46) 38.22 (ite (<= w 47) 38.97 (ite (<= w 48) 39.72 (ite (<= w 49) 40.47 (ite (<= w 50) 41.22 (ite (<= w 51) 41.97 (ite (<= w 52) 42.72 (ite (<= w 53) 43.47 (ite (<= w 54) 44.22 (ite (<= w 55) 44.97 (ite (<= w 56) 45.72 (ite (<= w 57) 46.47 (ite (<= w 58) 47.22 (ite (<= w 59) 47.97 (ite (<= w 60) 48.72 (ite (<= w 61) 49.47 (ite (<= w 62) 50.22 (ite (<= w 63) 50.97 (ite (<= w 64) 51.72 (ite (<= w 65) 52.47 (ite (<= w 66) 53.22 (ite (<= w 67) 53.97 (ite (<= w 68) 54.72 (ite (<= w 69) 55.47 (ite (<= w 70) 56.22 max))))))))))))))))))))))))))))))))))))))))))))))))))))))))))))))))))))))))